param N_paletes := 10;  # 10 paletes
param N_niveis := 10;   # 10 niveis

param Palete: 
	1	2	3	4	:=
1	257	109	800	31
2	257	109	800	31
3	258	79	800	29
4	258	79	800	29
5	259	79	800	29
6	259	79	800	29
7	260	61	800	23
8	261	61	800	23
9	262	79	800	15
10	262	39	800	15	;

param Nivel:
	1	2	:=
1	1	3200
2	2	3200
3	3	3200
4	4	3200
5	5	3200
6	2	3200
7	3	3200
8	4	3200
9	5	3200
10	6	3200	;


